out/bwp_11_12_1_lp.out
6
0 0    0 0
0 1    0 1
1 1    1 1
0 2    0 2
7 4    8 4
7 3    10 3
7 5    10 5
2 0    4 2
5 0    7 2
8 0    10 2
1 3    3 5
4 3    6 5
